minizinc/sudoku_problems2/sudoku_p28.dzn
%
% sudoku_p28.dzn
% See http://www.hakank.org/minizinc/sudoku_gcc.mzn
% 
% This problem is problem 28 from
% Gecode's sudoku.cpp
% http://www.gecode.org/gecode-doc-latest/sudoku_8cpp-source.html
% 
x = array2d(1..n, 1..n, [   
% 28
  _,  _,  _, 16,  8,  7,  _,  _, 24,  _,  _, 15,  _, 23,  _,  _, 12, 17,  6,  _,  _, 13,  _,  _,  2,
 12,  1,  6,  _,  _, 23,  _,  _,  _,  _, 13, 21,  _,  3,  _, 14,  _,  _,  _,  _,  _,  _,  _,  _,  _,
  _, 21, 23,  _, 14, 20,  _,  _, 13,  _,  _, 24,  _, 16,  6,  _,  4,  1,  2,  _,  _,  _,  _,  5, 17,
 20,  _,  _,  _,  2,  _,  _,  _,  _,  _,  _,  _,  _,  5,  9, 22,  _,  _,  _, 25,  _,  _,  3,  _,  _,
  _,  _, 10,  9,  _, 22,  _,  6,  _,  _,  _,  _,  8,  _, 14,  7, 24,  3,  _,  _, 20,  _,  _, 21, 11,
  7,  _,  _,  8, 11,  _,  1,  _, 14, 25,  _,  _,  _,  _,  _,  4,  _, 21,  _,  6,  _, 12,  _,  9,  _,
  _,  3,  _,  6,  _,  _,  _,  9,  _,  8,  5,  _, 10,  2, 15,  _,  _,  _,  _,  _, 11,  _, 14, 25,  _,
  _, 13,  4, 20,  _, 21,  _,  _, 23, 10,  _,  _,  _,  _, 12,  _, 22,  _, 14,  _,  _,  7,  _,  _,  _,
 21,  _,  _, 25,  _,  3, 17,  _, 12, 16,  _,  7,  _,  _,  _,  _, 13, 20, 15,  _,  _, 18,  6,  _,  _,
  5, 14, 17,  _, 16,  _,  7,  _,  6,  _,  1,  _,  _,  _,  _, 19,  _,  _,  _,  _, 13,  3, 20,  _, 24,
  _,  6,  _,  _,  _,  _,  _, 16,  _, 20,  _, 14,  _,  _, 18,  2,  _,  4, 19,  _,  _,  _,  _,  _,  _,
  _,  _, 18, 12, 15, 25,  _,  8, 17,  7,  _,  2,  _, 24,  _, 11,  _, 23, 22,  5,  _,  _, 16,  _,  _,
  _, 22,  _,  _, 13,  9,  _,  _, 11, 14,  _,  _, 19,  _,  _, 15,  _,  _, 18,  7,  _,  _, 21, 10, 20,
  _, 11, 14,  _, 21,  _,  _,  _,  3,  1,  _, 22,  7, 15, 20,  _,  _, 12,  9,  _,  _,  8,  _, 13, 23,
  _,  2, 24,  _,  _,  _,  _,  _,  _, 13,  3,  8, 12,  _,  _,  _, 14,  _,  _,  _, 15,  _, 25,  _,  _,
  _, 10,  _,  _,  _,  _,  _, 22,  _,  _, 23, 11,  _,  _,  3,  _, 19,  _,  7, 14,  8,  _,  _,  2,  _,
  _,  _,  _, 24,  _,  _,  _, 11,  _,  _,  6,  _,  _, 12,  _,  8, 20, 16,  4,  _,  _,  5, 13,  7, 22,
  _,  _,  _,  _, 22,  8,  _,  _, 18,  _,  _,  9,  _,  _, 10, 21,  1,  _, 24,  _,  3, 17, 11, 23, 16,
  _, 12,  _,  _,  4,  _,  _,  _,  _, 21,  _,  _,  _,  _,  _, 13,  _, 15,  _,  _,  _,  _,  _,  _,  _,
 19,  _,  _,  5, 23, 15,  _,  _, 16,  _,  _,  _, 17,  _,  _,  6,  _,  _, 12,  _,  _,  1,  _,  _,  _,
 13,  _,  _, 23,  _,  _, 24,  _,  _,  _,  _, 16,  9,  _, 19,  _, 10,  _,  _, 18,  _,  _,  _,  8,  _,
  _, 15,  _, 17,  1, 11, 23,  _, 20,  _, 24,  _,  4,  _,  8,  _,  6,  _,  3,  _,  9,  _, 22,  _,  _,
 11,  _,  _,  _, 18,  _,  _,  _,  _,  9, 20,  _,  _,  6,  _,  _,  2,  _,  _,  _, 16,  _, 17,  1,  _,
 24,  _,  _,  _,  7,  _, 12, 19, 22, 18,  2,  5, 23,  _,  _,  _, 17, 13, 20, 11, 25, 15, 10, 14,  _,
  _,  _,  _,  _,  _,  2,  8,  _, 15,  _,  _, 12,  _,  _,  _,  _,  _,  _,  _,  _, 24,  _, 19, 20,  _
]);

n = 25;


